p cnf 78 216
c inputs: 1 2 3 4 5 6
c variables for gates: 7 ... 72
c outputs: 73 74 75 76 77 78
c random input: 1 2 3 4 -5 -6
7 -2 -4 0
-7 2 0
-7 4 0
8 -1 -5 0
-8 1 0
-8 5 0
9 -7 8 0
-9 7 0
-9 -8 0
10 -8 7 0
-10 8 0
-10 -7 0
11 10 9 0
-11 -10 0
-11 -9 0
12 -2 -4 0
-12 2 0
-12 4 0
13 -1 -5 0
-13 1 0
-13 5 0
14 -12 -13 0
-14 12 0
-14 13 0
15 -3 -4 0
-15 3 0
-15 4 0
16 -2 -5 0
-16 2 0
-16 5 0
17 -16 -15 0
-17 16 0
-17 15 0
18 -3 -4 0
-18 3 0
-18 4 0
19 -18 -14 0
-19 18 0
-19 14 0
20 -2 -5 0
-20 2 0
-20 5 0
21 -20 -14 0
-21 20 0
-21 14 0
22 19 21 0
-22 -19 0
-22 -21 0
23 17 -22 0
-23 -17 0
-23 22 0
24 -3 -4 0
-24 3 0
-24 4 0
25 -2 -5 0
-25 2 0
-25 5 0
26 -25 14 0
-26 25 0
-26 -14 0
27 25 -14 0
-27 -25 0
-27 14 0
28 27 26 0
-28 -27 0
-28 -26 0
29 -24 -28 0
-29 24 0
-29 28 0
30 24 28 0
-30 -24 0
-30 -28 0
31 30 29 0
-31 -30 0
-31 -29 0
32 -3 -5 0
-32 3 0
-32 5 0
33 -32 23 0
-33 32 0
-33 -23 0
34 -3 -5 0
-34 3 0
-34 5 0
35 -34 -23 0
-35 34 0
-35 23 0
36 34 23 0
-36 -34 0
-36 -23 0
37 35 36 0
-37 -35 0
-37 -36 0
38 -1 -6 0
-38 1 0
-38 6 0
39 38 31 0
-39 -38 0
-39 -31 0
40 -38 -31 0
-40 38 0
-40 31 0
41 40 39 0
-41 -40 0
-41 -39 0
42 -1 -6 0
-42 1 0
-42 6 0
43 -42 31 0
-43 42 0
-43 -31 0
44 -2 -6 0
-44 2 0
-44 6 0
45 -44 37 0
-45 44 0
-45 -37 0
46 -43 37 0
-46 43 0
-46 -37 0
47 -2 -6 0
-47 2 0
-47 6 0
48 -47 -43 0
-48 47 0
-48 43 0
49 48 46 0
-49 -48 0
-49 -46 0
50 -49 45 0
-50 49 0
-50 -45 0
51 -2 -6 0
-51 2 0
-51 6 0
52 -51 43 0
-52 51 0
-52 -43 0
53 51 -43 0
-53 -51 0
-53 43 0
54 53 52 0
-54 -53 0
-54 -52 0
55 37 -54 0
-55 -37 0
-55 54 0
56 -37 54 0
-56 37 0
-56 -54 0
57 55 56 0
-57 -55 0
-57 -56 0
58 -3 -6 0
-58 3 0
-58 6 0
59 -58 -33 0
-59 58 0
-59 33 0
60 -33 50 0
-60 33 0
-60 -50 0
61 -3 -6 0
-61 3 0
-61 6 0
62 -61 50 0
-62 61 0
-62 -50 0
63 62 60 0
-63 -62 0
-63 -60 0
64 59 -63 0
-64 -59 0
-64 63 0
65 -3 -6 0
-65 3 0
-65 6 0
66 -65 -50 0
-66 65 0
-66 50 0
67 65 50 0
-67 -65 0
-67 -50 0
68 66 67 0
-68 -66 0
-68 -67 0
69 -33 -68 0
-69 33 0
-69 68 0
70 33 68 0
-70 -33 0
-70 -68 0
71 69 70 0
-71 -69 0
-71 -70 0
72 -1 -4 0
-72 1 0
-72 4 0
-73 72 0
73 -72 0
-74 -11 0
74 11 0
-75 -41 0
75 41 0
-76 -57 0
76 57 0
-77 -71 0
77 71 0
-78 -64 0
78 64 0
73 0
74 0
75 0
-76 0
-77 0
-78 0
